
Gurobi 9.5.2 (win64, Python) logging started Sat Dec 24 18:38:09 2022

Set parameter Username
Set parameter LogFile to value "gurobi.log"
Academic license - for non-commercial use only - expires 2023-10-16

Gurobi 9.5.2 (win64, Python) logging started Sat Dec 24 18:42:10 2022

Set parameter Username
Set parameter LogFile to value "gurobi.log"
Academic license - for non-commercial use only - expires 2023-10-16
